c Sudoku solution
p cnf 729 0
127 0
156 0
172 0
224 0
265 0
293 0
325 0
341 0
358 0
384 0
455 0
477 0
496 0
531 0
557 0
569 0
592 0
681 0
461 0
713 0
751 0
778 0
797 0
287 0
399 0
376 0
271 0
111 0
367 0
333 0
312 0
818 0
238 0
216 0
139 0
853 0
966 0
948 0
847 0
745 0
959 0
668 0
249 0
252 0
654 0
695 0
574 0
515 0
144 0
163 0
198 0
185 0
922 0
821 0
729 0
894 0
991 0
862 0
764 0
782 0
983 0
975 0
879 0
886 0
736 0
835 0
673 0
588 0
489 0
428 0
443 0
642 0
546 0
432 0
637 0
414 0
619 0
523 0
626 0
917 0
934 0
